37580
0 1 1 1 1 1 0 1 1 1 1 1 1 0 1 1 1 1 0 1 1 1 1 1 1 1 1 1 1 1
19 22 1 8 9 26 8 3 24 5 19 4 10 14 3 2 14 16 16 20 16 16 4 19 17 8 5 22 3 16 4 5 7 3 2 24 1 16 26 5 14 25 11 1 22 22 12 5 22 19 3 2 24 22 24 4 5 23 14 1 27 27 22 29 4 24 5 14 9 5 15 22 2 8 22 19 22 4 3 14 14 12 11 23 20 5 4 2 24 8 15 29 19 27 7 26 20 10 11 3 2 23 19 11 27 19 1 23 11 9 26 17 9 21 7 17 20 12 11 2 25 10 10 22 1 15 21 21 8 2 10 8 23 9 16 28 5 23 14 1 2 17 27 11 27 19 11 8 16 9 12 11 29 22 4 25 5 24 12 17 23 20 19 17 26 25 2 10 25 22 21 14 24 20 12 7 2 14 27 29 19 4 28 22 28 15 29 24 8 29 16 8 23 20 8 10 4 1 27 8